
Gurobi 6.5.2 (win64) logging started 07/24/16 17:25:38


Gurobi 6.5.2 (win64) logging started 07/24/16 17:25:38

Optimize a model with 2013 rows, 596 columns and 5231 nonzeros
Coefficient statistics:
  Matrix range    [6e-08, 1e+03]
  Objective range [1e+00, 1e+00]
  Bounds range    [1e+00, 1e+00]
  RHS range       [6e-06, 1e+03]
Presolve removed 1807 rows and 380 columns
Presolve time: 0.00s
Presolved: 206 rows, 216 columns, 898 nonzeros
Variable types: 216 continuous, 0 integer (0 binary)

Root relaxation: objective 1.675018e+01, 224 iterations, 0.02 seconds

    Nodes    |    Current Node    |     Objective Bounds      |     Work
 Expl Unexpl |  Obj  Depth IntInf | Incumbent    BestBd   Gap | It/Node Time

*    0     0               0      16.7501773   16.75018  0.00%     -    0s

Explored 0 nodes (224 simplex iterations) in 0.02 seconds
Thread count was 8 (of 8 available processors)

Optimal solution found (tolerance 1.00e-04)
Best objective 1.675017731222e+01, best bound 1.675017731222e+01, gap 0.0%

Wrote requested result file 'H1\instance6\\Results6EC_Sol5.lp'

